[on. 05. april 09:03:21 +0200 2023]  ./input/alternate_g_np_100/100-2-3.gcc
Set parameter Username
Academic license - for non-commercial use only - expires 2024-03-28
Set parameter TimeLimit to value 1800
Set parameter PreCrush to value 1
Set parameter LazyConstraints to value 1
Gurobi Optimizer version 10.0.1 build v10.0.1rc0 (linux64)

CPU model: AMD Ryzen 9 5950X 16-Core Processor, instruction set [SSE2|AVX|AVX2]
Thread count: 16 physical cores, 32 logical processors, using up to 32 threads

Optimize a model with 101 rows, 200 columns and 400 nonzeros
Model fingerprint: 0xc45046f7
Variable types: 0 continuous, 200 integer (200 binary)
Coefficient statistics:
  Matrix range     [1e+00, 1e+00]
  Objective range  [1e+00, 1e+02]
  Bounds range     [1e+00, 1e+00]
  RHS range        [1e+00, 1e+00]
Presolve time: 0.00s
Presolved: 101 rows, 200 columns, 400 nonzeros
Variable types: 0 continuous, 200 integer (200 binary)

Root relaxation: objective 4.661000e+03, 1 iterations, 0.00 seconds (0.00 work units)

    Nodes    |    Current Node    |     Objective Bounds      |     Work
 Expl Unexpl |  Obj  Depth IntInf | Incumbent    BestBd   Gap | It/Node Time

     0     0 4661.00000    0    -          - 4661.00000      -     -    0s
     0     0 4661.00000    0    -          - 4661.00000      -     -    0s
     0     0 4661.00000    0    -          - 4661.00000      -     -    0s
     0     0 4661.00000    0   10          - 4661.00000      -     -    0s
     0     0 4653.00000    0    8          - 4653.00000      -     -    0s
     0     0 4653.00000    0   10          - 4653.00000      -     -    0s
     0     2 4653.00000    0   12          - 4653.00000      -     -    0s
*12583  3126              24    4327.0000000 4382.00000  1.27%  13.1    3s

Cutting planes:
  User: 90
  Lazy constraints: 1028

Explored 15096 nodes (221331 simplex iterations) in 3.94 seconds (1.84 work units)
Thread count was 32 (of 32 available processors)

Solution count 1: 4327 

Optimal solution found (tolerance 1.00e-04)
Best objective 4.327000000001e+03, best bound 4.327000000001e+03, gap 0.0000%

User-callback calls 31385, time in user-callback 1.83 sec
Minimal separator inequalities added: 27789
Indegree inequalities added: 25729
WRONG SOLUTION
[on. 05. april 09:03:25 +0200 2023]  done

